; benchmark generated from python API
(set-info :status unknown)
(declare-datatypes ((RealState 0)) (((RMk1 (rval1 Real)) (RMk2 (rval2 Real)))))
 (assert
 (forall ((|v9:0| Real) )(exists ((|v8:1_st| RealState) (val!1365 Real) )(forall ((|v7:2| Real) )(exists ((|v6:3_st| RealState) (val!1366 Real) )(forall ((|v5:4| Real) )(exists ((|v4:5_st| RealState) (val!1367 Real) )(forall ((|v3:6| Real) )(exists ((|v2:7_st| RealState) (val!1368 Real) )(forall ((|v1:8| Real) )(exists ((|v0:9_st| RealState) (val!1369 Real) )(let ((?x634 (- 8.0)))
 (let ((?x767 (+ (+ (* (- 1.0) (rval2 |v0:9_st|)) (* (- 14.0) (rval2 |v2:7_st|))) (* 10.0 (rval2 |v4:5_st|)))))
 (let ((?x48 (- 5.0)))
 (let ((?x483 (* 15.0 |v3:6|)))
 (let (($x942 (<= (+ (+ (* (- 12.0) (rval2 |v8:1_st|)) (* ?x48 (rval2 |v4:5_st|))) ?x483) ?x48)))
 (let ((?x13 (- 4.0)))
 (let ((?x382 (+ (+ (* 13.0 (rval2 |v2:7_st|)) (* (- 9.0) (rval2 |v4:5_st|))) (* ?x634 (rval2 |v2:7_st|)))))
 (let (($x109 (<= (+ (+ (* 5.0 |v5:4|) (* (- 11.0) |v9:0|)) (* 16.0 |v7:2|)) 15.0)))
 (let (($x1212 (<= (+ (+ (* ?x634 |v1:8|) (* (- 15.0) |v1:8|)) (* 6.0 (rval2 |v6:3_st|))) 3.0)))
 (let ((?x87 (- 10.0)))
 (let (($x127 (<= (+ (+ (* 5.0 (rval2 |v6:3_st|)) (* 13.0 |v5:4|)) (* 18.0 |v7:2|)) ?x87)))
 (let ((?x1018 (- 11.0)))
 (let (($x1035 (<= (+ (+ (* 6.0 |v9:0|) (* 20.0 |v7:2|)) (* (- 12.0) |v1:8|)) ?x1018)))
 (let ((?x495 (+ (+ (* (- 6.0) (rval2 |v8:1_st|)) (* (- 2.0) |v9:0|)) (* (- 6.0) |v3:6|))))
 (let (($x1077 (or (and (or (<= ?x495 10.0) $x1035) (or $x127 $x1212)) (and (and $x109 (<= ?x382 ?x13)) (or $x942 (<= ?x767 ?x634))))))
 (let ((?x81 (+ (+ (* (- 16.0) (rval2 |v8:1_st|)) (* 15.0 (rval2 |v0:9_st|))) (* 10.0 (rval2 |v0:9_st|)))))
 (let ((?x548 (rval2 |v0:9_st|)))
 (let ((?x314 (- 1.0)))
 (let ((?x888 (* ?x314 ?x548)))
 (let ((?x1256 (* 2.0 |v3:6|)))
 (let (($x199 (<= (+ (+ (* 6.0 (rval2 |v8:1_st|)) (* ?x13 (rval2 |v8:1_st|))) ?x1256) 8.0)))
 (let (($x591 (or $x199 (<= (+ (+ (* 9.0 (rval2 |v6:3_st|)) (* 6.0 |v3:6|)) ?x888) 1.0))))
 (let (($x1231 (<= (+ (+ |v5:4| (* 10.0 |v7:2|)) (* (- 19.0) (rval2 |v2:7_st|))) 18.0)))
 (let ((?x769 (rval2 |v6:3_st|)))
 (let ((?x1009 (* 12.0 ?x769)))
 (let (($x948 (or (<= (+ (+ (* 0.0 (rval2 |v2:7_st|)) (* 16.0 |v3:6|)) ?x1009) 16.0) (or (and $x1231 (and $x591 (<= ?x81 14.0))) $x1077))))
 (let (($x945 (not (= |v0:9_st| (RMk1 val!1369)))))
 (let (($x729 (not (= |v2:7_st| (RMk1 val!1368)))))
 (let (($x655 (not (= |v4:5_st| (RMk1 val!1367)))))
 (let (($x501 (not (= |v6:3_st| (RMk1 val!1366)))))
 (let (($x699 (not (= |v8:1_st| (RMk1 val!1365)))))
 (and $x699 $x501 $x655 $x729 $x945 $x948)))))))))))))))))))))))))))))))))
 )
 )
 )
 )
 )
 )
 )
 )
 )
 )
(check-sat)
